NAME : swiss42-R-5-3-c.1510.tour
COMMENT : Length = 1510
COMMENT : Found by LKH-3 [Keld Helsgaun] Tue Jul 30 13:14:22 2024
TYPE : TOUR
DIMENSION : 42
TOUR_SECTION
1
33
31
30
40
22
25
41
24
26
12
13
19
6
14
20
15
38
16
17
8
18
32
37
36
21
34
35
39
23
10
42
11
9
29
3
28
4
5
27
7
2
-1
EOF
